Assets/LKHProbs~/skull.16.tsp
NAME : GeneratedProblem
COMMENT : SVGCrosshatch
TYPE : TSP
DIMENSION : 18
EDGE_WEIGHT_TYPE : EUC_2D
NODE_COORD_SECTION
1 8900 10800
2 8900 10900
3 9000 10800
4 9000 10900
5 9000 11000
6 9000 11100
7 9100 10800
8 9100 10900
9 9200 10600
10 9200 10700
11 9200 10800
12 9200 10900
13 9300 10600
14 9300 10700
15 9400 10600
16 9400 10700
17 9500 10600
18 9500 10700
EOF
