Assets/LKHProbs~/skull.16.out.txt
NAME : GeneratedProblem.2006.tour
COMMENT : Length = 2006
COMMENT : Found by LKH [Keld Helsgaun] Sun Nov 25 13:17:39 2018
TYPE : TOUR
DIMENSION : 18
TOUR_SECTION
1
2
4
5
6
8
12
11
14
16
18
17
15
13
9
10
7
3
-1
EOF
